
<<< setup


<<< generate

Version identifier: 12.10.0.0 | 2019-11-26 | 843d4de2ae
CPXPARAM_TimeLimit                               1200
Tried aggregator 2 times.
MIP Presolve eliminated 5181578 rows and 2950011 columns.
MIP Presolve modified 420932 coefficients.
Aggregator did 1404 substitutions.
Reduced MIP has 67668 rows, 67635 columns, and 414628 nonzeros.
Reduced MIP has 67587 binaries, 0 generals, 0 SOSs, and 0 indicators.
Presolve time = 6.11 sec. (3765.18 ticks)
Found incumbent of value 0.000000 after 9.36 sec. (4757.58 ticks)
Probing fixed 765 vars, tightened 0 bounds.
Probing time = 4.86 sec. (923.44 ticks)
Tried aggregator 2 times.
Detecting symmetries...
MIP Presolve eliminated 754 rows and 765 columns.
Aggregator did 1 substitutions.
Reduced MIP has 66913 rows, 66869 columns, and 409642 nonzeros.
Reduced MIP has 66821 binaries, 0 generals, 0 SOSs, and 0 indicators.
Presolve time = 0.66 sec. (281.70 ticks)
Probing fixed 1 vars, tightened 0 bounds.
Probing time = 0.38 sec. (62.16 ticks)
Clique table members: 230882.
MIP emphasis: balance optimality and feasibility.
MIP search method: dynamic search.
Parallel mode: deterministic, using up to 4 threads.
Root relaxation solution time = 4.33 sec. (2722.91 ticks)

        Nodes                                         Cuts/
   Node  Left     Objective  IInf  Best Integer    Best Bound    ItCnt     Gap

*     0+    0                            0.0000   128842.0000              --- 
      0     0   128842.0000   985        0.0000   128842.0000    12421     --- 
*     0+    0                          305.0000   128842.0000              --- 
      0     0   128842.0000   985      305.0000      Cuts: 43    26320     --- 
      0     0   128842.0000   985      305.0000     Cuts: 350    41888     --- 
      0     0   128842.0000   985      305.0000    Cuts: 8584    61361     --- 
Heuristic still looking.
Heuristic still looking.
Detecting symmetries...
      0     2   128842.0000   841      305.0000   128842.0000    88206     --- 
Elapsed time = 673.36 sec. (385327.48 ticks, tree = 0.02 MB, solutions = 2)
      1     3   128842.0000   815      305.0000   128842.0000   114153     --- 
      2     3   128842.0000   804      305.0000   128842.0000   117811     --- 
      3     4   128842.0000   858      305.0000   128842.0000   127438     --- 
      4     6   128842.0000  1168      305.0000   128842.0000   174831     --- 
      5     5   128842.0000  1037      305.0000   128842.0000   165925     --- 
      6     7   128842.0000  1114      305.0000   128842.0000   179179     --- 
      7     8   128842.0000   997      305.0000   128842.0000   204294     --- 
      8     9   128842.0000  1086      305.0000   128842.0000   210486     --- 
      9    10   128842.0000  1053      305.0000   128842.0000   211585     --- 
     13     9   128842.0000  1091      305.0000   128842.0000   196727     --- 
Elapsed time = 796.34 sec. (440680.52 ticks, tree = 0.14 MB, solutions = 2)
     14     4   128842.0000  1045      305.0000   128842.0000   135170     --- 
     16    10   128842.0000  1048      305.0000   128842.0000   197730     --- 
     17     9   128842.0000   956      305.0000   128842.0000   223752     --- 
     21    11   128842.0000   889      305.0000   128842.0000   212880     --- 
     24    12   128842.0000  1172      305.0000   128842.0000   215358     --- 
     27    14   128842.0000  1058      305.0000   128842.0000   220767     --- 
     29    17   128842.0000  1089      305.0000   128842.0000   260657     --- 
     31    22   128842.0000  1185      305.0000   128842.0000   286765     --- 
     34    19   128842.0000  1062      305.0000   128842.0000   269640     --- 
     37    13   128842.0000   925      305.0000   128842.0000   230415     --- 
Elapsed time = 840.49 sec. (459772.71 ticks, tree = 0.21 MB, solutions = 2)
     38    14   128842.0000  1052      305.0000   128842.0000   234038     --- 
     40    16   128842.0000  1227      305.0000   128842.0000   259269     --- 
     44    24   128842.0000  1134      305.0000   128842.0000   292687     --- 
     50    30   128842.0000  1051      305.0000   128842.0000   303561     --- 
     54    45   128842.0000  1002      305.0000   128842.0000   349895     --- 
     56    40   128842.0000  1126      305.0000   128842.0000   335130     --- 
     59    48   128842.0000  1037      305.0000   128842.0000   351968     --- 
     62    42   128842.0000  1130      305.0000   128842.0000   338770     --- 
     64    44   128842.0000  1219      305.0000   128842.0000   343204     --- 
     69    46   128842.0000  1184      305.0000   128842.0000   346606     --- 
Elapsed time = 873.05 sec. (472894.20 ticks, tree = 0.84 MB, solutions = 2)
     71    50   128842.0000   908      305.0000   128842.0000   383253     --- 
     72    58   128842.0000  1113      305.0000   128842.0000   395505     --- 
     74    64   128842.0000  1233      305.0000   128842.0000   409751     --- 
     76    51   128842.0000  1418      305.0000   128842.0000   403269     --- 
     79    66   128842.0000  1268      305.0000   128842.0000   429079     --- 
     80    71   128842.0000  1074      305.0000   128842.0000   438721     --- 
     85    73    infeasible            305.0000   128842.0000   490140     --- 
     87    74    infeasible            305.0000   128842.0000   529797     --- 
     89    72    infeasible            305.0000   128842.0000   500161     --- 
     91    81    infeasible            305.0000   128842.0000   582409     --- 
Elapsed time = 994.42 sec. (508310.21 ticks, tree = 2.33 MB, solutions = 2)
     92    78    infeasible            305.0000   128842.0000   592854     --- 
     94    79    infeasible            305.0000   128842.0000   594897     --- 
     95    77    infeasible            305.0000   128842.0000   594044     --- 
     96    78    infeasible            305.0000   128842.0000   605776     --- 
     97    74   128842.0000   861      305.0000   128842.0000   548842     --- 
     98    72   128842.0000   970      305.0000   128842.0000   668483     --- 
    100    79   128842.0000  1087      305.0000   128842.0000   566511     --- 
    105    75   128842.0000  1226      305.0000   128842.0000   678016     --- 
    107    74   128842.0000  1267      305.0000   128842.0000   626255     --- 
    109    77   128842.0000  1147      305.0000   128842.0000   689173     --- 
Elapsed time = 1093.88 sec. (540836.91 ticks, tree = 2.43 MB, solutions = 2)
    111    75   128842.0000  1096      305.0000   128842.0000   695612     --- 
    115    81   128842.0000  1132      305.0000   128842.0000   708574     --- 
    117    76   128842.0000  1195      305.0000   128842.0000   700395     --- 
    122    77   128842.0000  1189      305.0000   128842.0000   702084     --- 
    125    78   128842.0000  1170      305.0000   128842.0000   703385     --- 
    128    89   128842.0000  1169      305.0000   128842.0000   737314     --- 
    133    79   128842.0000  1117      305.0000   128842.0000   707494     --- 
    135    97   128842.0000  1143      305.0000   128842.0000   801805     --- 
    140    80   128842.0000  1164      305.0000   128842.0000   712077     --- 
    141    98   128842.0000  1015      305.0000   128842.0000   805578     --- 
Elapsed time = 1148.78 sec. (562171.65 ticks, tree = 4.40 MB, solutions = 2)
    143   102   128842.0000  1071      305.0000   128842.0000   822910     --- 
    152    96   128842.0000  1165      305.0000   128842.0000   775320     --- 
    154    98   128842.0000  1047      305.0000   128842.0000   778359     --- 
    157   101   128842.0000  1065      305.0000   128842.0000   783221     --- 
    158   103   128842.0000  1056      305.0000   128842.0000   841042     --- 
    162   102   128842.0000  1070      305.0000   128842.0000   790962     --- 
    165   105   128842.0000   957      305.0000   128842.0000   854892     --- 
    171   104   128842.0000   998      305.0000   128842.0000   850248     --- 
    172   116   128842.0000  1138      305.0000   128842.0000   883912     --- 
    174   107   128842.0000  1000      305.0000   128842.0000   879833     --- 
Elapsed time = 1190.83 sec. (579693.20 ticks, tree = 3.85 MB, solutions = 2)
    177   110   128842.0000   956      305.0000   128842.0000   884654     --- 
    181   111   128842.0000   989      305.0000   128842.0000   891330     --- 
    183   120   128842.0000  1089      305.0000   128842.0000   901953     --- 

Clique cuts applied:  1
Implied bound cuts applied:  554
Flow cuts applied:  67
Mixed integer rounding cuts applied:  5

Root node processing (before b&c):
  Real time             =  631.08 sec. (353326.76 ticks)
Parallel b&c, 4 threads:
  Real time             =  569.47 sec. (233116.35 ticks)
  Sync time (average)   =  102.40 sec.
  Wait time (average)   =    0.00 sec.
                          ------------
Total (root+branch&cut) = 1200.55 sec. (586443.11 ticks)

<<< solve


OBJECTIVE: 305

<<< post process


<<< done

